set P := P1 P2 P3 P4;

param cost :=
P1 200
P2 150
P3 300
P4 400 ;

param m :=
P1 50
P2 30
P3 80
P4 70 ;

param d :=
P1 40
P2 20
P3 60
P4 50 ;

param t :=
P1 20
P2 10
P3 70
P4 90 ;

param M_target := 50000;
param D_target := 75000;
param T_target := 60000;
